/* IPET system */
max:3 e18_20_main+ 6 e18_19_main+ 7 e14_18_main+ 7 e17_18_main+ 6 e14_17_main+ 11 e12_16_main+ 11 e15_16_main+ 3 e12_15_main+ 7 e10_14_main+ 7 e13_14_main+ 6 e10_13_main+ 7 e8_12_main+ 7 e11_12_main+ 3 e8_11_main+ 14 e7_10_main+ 14 e9_10_main+ 12 e7_9_main+ 7 e6_8_main+ 7 e20_8_main+ 7 e5_7_main+ e5_6_main+ 7 e3_5_main+ 7 e19_5_main+ 24 e2_4_main+ 4 e2_3_main+ 7 e1_2_main+ 7 e4_2_main+ 19 e0_1_main;
x0_main = 1;	/* program entry constraint*/
x21_main =e16_21_main;	/* structural input constraint*/
x20_main =e20_8_main;	/* structural output constraint*/
x20_main =e18_20_main;	/* structural input constraint*/
x19_main =e19_5_main;	/* structural output constraint*/
x19_main =e18_19_main;	/* structural input constraint*/
x18_main =e18_20_main+ e18_19_main;	/* structural output constraint*/
x18_main =e14_18_main+ e17_18_main;	/* structural input constraint*/
x17_main =e17_18_main;	/* structural output constraint*/
x17_main =e14_17_main;	/* structural input constraint*/
x16_main =e16_21_main;	/* structural output constraint*/
x16_main =e12_16_main+ e15_16_main;	/* structural input constraint*/
x15_main =e15_16_main;	/* structural output constraint*/
x15_main =e12_15_main;	/* structural input constraint*/
x14_main =e14_18_main+ e14_17_main;	/* structural output constraint*/
x14_main =e10_14_main+ e13_14_main;	/* structural input constraint*/
x13_main =e13_14_main;	/* structural output constraint*/
x13_main =e10_13_main;	/* structural input constraint*/
x12_main =e12_16_main+ e12_15_main;	/* structural output constraint*/
x12_main =e8_12_main+ e11_12_main;	/* structural input constraint*/
x11_main =e11_12_main;	/* structural output constraint*/
x11_main =e8_11_main;	/* structural input constraint*/
x10_main =e10_14_main+ e10_13_main;	/* structural output constraint*/
x10_main =e7_10_main+ e9_10_main;	/* structural input constraint*/
x9_main =e9_10_main;	/* structural output constraint*/
x9_main =e7_9_main;	/* structural input constraint*/
x8_main =e8_12_main+ e8_11_main;	/* structural output constraint*/
x8_main =e6_8_main+ e20_8_main;	/* structural input constraint*/
x7_main =e7_10_main+ e7_9_main;	/* structural output constraint*/
x7_main =e5_7_main;	/* structural input constraint*/
x6_main =e6_8_main;	/* structural output constraint*/
x6_main =e5_6_main;	/* structural input constraint*/
x5_main =e5_7_main+ e5_6_main;	/* structural output constraint*/
x5_main =e3_5_main+ e19_5_main;	/* structural input constraint*/
x4_main =e4_2_main;	/* structural output constraint*/
x4_main =e2_4_main;	/* structural input constraint*/
x3_main =e3_5_main;	/* structural output constraint*/
x3_main =e2_3_main;	/* structural input constraint*/
x2_main =e2_4_main+ e2_3_main;	/* structural output constraint*/
x2_main =e1_2_main+ e4_2_main;	/* structural input constraint*/
x1_main =e1_2_main;	/* structural output constraint*/
x1_main =e0_1_main;	/* structural input constraint*/
x0_main =e0_1_main;	/* structural output constraint*/
int x5_main;
int x0_main;
int x3_main;
int e5_6_main;
int e2_3_main;
int e4_2_main;
int x4_main;
int e7_9_main;
int e0_1_main;
int e3_5_main;
int x1_main;
int e20_8_main;
int x21_main;
int e2_4_main;
int x20_main;
int e18_20_main;
int x19_main;
int e19_5_main;
int x18_main;
int e18_19_main;
int e16_21_main;
int x17_main;
int e17_18_main;
int x16_main;
int e14_18_main;
int x15_main;
int e15_16_main;
int x14_main;
int e14_17_main;
int e12_16_main;
int x13_main;
int e13_14_main;
int e1_2_main;
int x2_main;
int e12_15_main;
int x11_main;
int e11_12_main;
int x12_main;
int e10_13_main;
int e10_14_main;
int x9_main;
int e9_10_main;
int x10_main;
int e8_12_main;
int e7_10_main;
int x8_main;
int e8_11_main;
int x7_main;
int e5_7_main;
int x6_main;
int e6_8_main;
